c FILE: guaranteed-satisfiable-aim-20-30.cnf
c
c SOURCE: Manually constructed satisfiable instance
c
c DESCRIPTION: A carefully constructed satisfiable CNF instance with 20 variables and 30 clauses
c
c NOTE: Satisfiable with the assignment x = (1,1,1,0,0,0,1,1,0,0,0,0,0,0,0,0,0,0,0,0)
c
p cnf 20 30
1 2 3 0
1 2 7 0
1 3 8 0
2 3 4 0
-4 5 6 0
-4 5 7 0
-4 6 8 0
-5 -6 9 0
-5 -7 10 0
-6 -8 11 0
7 8 12 0
9 10 11 0
-9 -10 13 0
-10 -11 14 0
-11 -12 15 0
-13 -14 16 0
-14 -15 17 0
-15 -16 18 0
-16 -17 19 0
-17 -18 20 0
1 -2 7 0
1 -3 8 0
2 -3 8 0
-1 2 3 0
-1 3 7 0
-2 3 8 0
-2 -3 13 0
-7 -8 14 0
1 7 -8 0
2 -7 8 0